
  32    4
  10   10   10   10

   0   0   0   0   0   1 2 
   2   1   0   1   1   1 3 
   5   2   1   4   0   1 4 
   3   5   2   4   0   1 5 
   1   6   5   4   0   1 6 
   2   2   0   5   3   1 7 
   1   2   0   5   3   1 8 
   4   3   5   0   3   1 9 
  10   3   4   3   0   1 10 
   2   0   3   6   5   1 11 
   1   0   7   3   3   1 12 
   9   3   5   3   0   1 13 
  10   4   2   0   7   1 14 
   5   3   4   0   4   2 18 15 
   7   5   6   3   0   1 16 
   8   4   0   4   7   1 17 
   5   0   5   3   3   1 19 
   4   4   0   3   3   1 19 
  10   1   0   4   3   1 20 
   5   6   3   6   0   2 26 21 
  10   4   7   6   0   1 22 
   8   5   2   0   4   1 23 
   7   0   2   3   6   1 24 
   9   7   2   6   0   1 25 
   6   2   0   6   3   1 27 
   5   5   3   3   0   1 27 
   1   4   0   2   4   1 28 
   9   4   4   0   6   1 29 
   7   5   7   4   0   2 31 30 
   6  10   5   6   0   1 32
   7   0   4   3   4   1 32
   0   0   0   0   0   0 
